\ Model prob_124
\ LP format - for model browsing. Use MPS format to capture full model detail.
Minimize
  12 x_1_2 + 47 x_1_3 + 39 x_1_4 + 4 x_1_5 + 21 x_1_6 + 31 x_1_7 + 14 x_2_1
   + 39 x_2_3 + 12 x_2_4 + 31 x_2_5 + 29 x_2_6 + 15 x_2_7 + 15 x_3_1
   + 6 x_3_2 + 26 x_3_4 + 12 x_3_5 + 5 x_3_6 + 3 x_3_7 + 39 x_4_1
   + 47 x_4_2 + 42 x_4_3 + 33 x_4_5 + 48 x_4_6 + 2 x_4_7 + 35 x_5_1
   + 25 x_5_2 + 46 x_5_3 + 12 x_5_4 + 25 x_5_6 + 45 x_5_7 + 39 x_6_1
   + 28 x_6_2 + 28 x_6_3 + 11 x_6_4 + 16 x_6_5 + 13 x_6_7 + 42 x_7_1
   + 43 x_7_2 + 49 x_7_3 + 41 x_7_4 + 41 x_7_5 + 18 x_7_6
Subject To
 R0: - x_1_2 - x_1_3 - x_1_4 - x_1_5 - x_1_6 - x_1_7 + x_2_1 + x_3_1
   + x_4_1 + x_5_1 + x_6_1 + x_7_1 >= -141
 R1: x_1_2 - x_2_1 - x_2_3 - x_2_4 - x_2_5 - x_2_6 - x_2_7 + x_3_2 + x_4_2
   + x_5_2 + x_6_2 + x_7_2 >= -215
 R2: x_1_3 + x_2_3 - x_3_1 - x_3_2 - x_3_4 - x_3_5 - x_3_6 - x_3_7 + x_4_3
   + x_5_3 + x_6_3 + x_7_3 >= -61
 R3: x_1_4 + x_2_4 + x_3_4 - x_4_1 - x_4_2 - x_4_3 - x_4_5 - x_4_6 - x_4_7
   + x_5_4 + x_6_4 + x_7_4 >= 253
 R4: x_1_5 + x_2_5 + x_3_5 + x_4_5 - x_5_1 - x_5_2 - x_5_3 - x_5_4 - x_5_6
   - x_5_7 + x_6_5 + x_7_5 >= 239
 R5: x_1_6 + x_2_6 + x_3_6 + x_4_6 + x_5_6 - x_6_1 - x_6_2 - x_6_3 - x_6_4
   - x_6_5 - x_6_7 + x_7_6 >= -1
 R6: x_1_7 + x_2_7 + x_3_7 + x_4_7 + x_5_7 + x_6_7 - x_7_1 - x_7_2 - x_7_3
   - x_7_4 - x_7_5 - x_7_6 >= -237
Bounds
End
